unknown
(model
; cardinality of BoundSet is 3
(declare-sort BoundSet 0)
; rep: @uc_BoundSet_0
; rep: @uc_BoundSet_1
; rep: @uc_BoundSet_2
(declare-sort UnboundSet 0)
(define-fun IsDrives ((BOUND_VARIABLE_493 BoundSet)) Bool true)
(define-fun IsNextTo ((BOUND_VARIABLE_493 BoundSet)) Bool true)
(define-fun IsShippingContainers ((BOUND_VARIABLE_493 BoundSet)) Bool true)
(define-fun IsHisCar ((BOUND_VARIABLE_493 BoundSet)) Bool false)
(define-fun IsContainers ((BOUND_VARIABLE_493 BoundSet)) Bool false)
)
unsat
(error "Cannot get the current model unless immediately preceded by SAT/INVALID or UNKNOWN response.")
